words_hard_train/4260.qaiger
aag 117 27 0 1 90
2
4
8
10
22
24
36
48
60
74
76
90
92
102
104
116
118
134
136
152
154
176
184
186
198
222
224
234
6 2 4
12 9 11
14 8 10
16 13 15
18 6 16
20 19 15
26 23 25
28 22 24
30 27 29
32 21 30
34 33 29
38 37 25
40 36 24
42 39 41
44 35 42
46 45 41
50 49 25
52 48 24
54 51 53
56 47 54
58 57 53
62 61 25
64 60 24
66 63 65
68 58 67
70 59 66
72 69 71
78 74 76
80 72 79
82 73 78
84 81 83
86 34 43
88 87 45
94 90 92
96 89 94
98 20 31
100 99 33
106 102 104
108 100 107
110 97 109
112 3 5
114 113 7
120 116 118
122 115 120
124 114 121
126 123 125
128 110 126
130 46 55
132 131 57
138 134 136
140 132 139
142 128 141
144 101 106
146 142 145
148 7 17
150 149 19
156 152 154
158 150 157
160 151 156
162 159 161
164 88 95
166 162 165
168 133 138
170 166 169
172 146 170
174 84 172
178 176 24
180 177 25
182 179 181
188 184 186
190 183 188
192 182 189
194 191 193
196 71 65
200 199 25
202 198 24
204 201 203
206 197 204
208 207 203
210 195 209
212 194 208
214 211 213
216 174 215
218 196 205
220 219 207
226 222 224
228 220 227
230 221 226
232 229 231
234 216 232
i0 1 x2[0]
i1 1 x1[5]
i2 1 x2[1]
i3 1 x1[6]
i4 1 x2[2]
i5 1 x1[7]
i6 1 x2[3]
i7 1 x2[4]
i8 1 x2[5]
i9 2 y1[5]
i10 2 y2[5]
i11 2 y1[3]
i12 2 y2[3]
i13 2 y1[2]
i14 2 y2[2]
i15 2 y1[0]
i16 2 y2[0]
i17 2 y1[4]
i18 2 y2[4]
i19 2 y1[1]
i20 2 y2[1]
i21 1 x2[7]
i22 2 y1[7]
i23 2 y2[7]
i24 1 x2[6]
i25 2 y1[6]
i26 2 y2[6]
o0 bool[0]
c
simplified
  ==
    and
      2 y2
      2 y1
    add
      1 x2
      >> 5
        1 x1
