words_hard_train/4260.qaiger.qdimacs
p cnf 117 271
a 1 2 99 4 5 11 12 18 24 88 30 0
e 3 6 7 8 9 10 13 14 15 16 17 19 20 21 22 23 25 26 27 28 29 31 32 33 34 35 36 37 38 39 40 41 42 43 44 45 46 47 48 49 50 51 52 53 54 55 56 57 58 59 60 61 62 63 64 65 66 67 68 69 70 71 72 73 74 75 76 77 78 79 80 81 82 83 84 85 86 87 89 90 91 92 93 94 95 96 97 98 100 101 102 103 104 105 106 107 108 109 110 111 112 113 114 115 116 117 0
-1 -2 3 0
1 -3 0
2 -3 0
4 5 6 0
-4 -6 0
-5 -6 0
-4 -5 7 0
4 -7 0
5 -7 0
6 7 8 0
-6 -8 0
-7 -8 0
-3 -8 9 0
3 -9 0
8 -9 0
9 7 10 0
-9 -10 0
-7 -10 0
11 12 13 0
-11 -13 0
-12 -13 0
-11 -12 14 0
11 -14 0
12 -14 0
13 14 15 0
-13 -15 0
-14 -15 0
10 -15 16 0
-10 -16 0
15 -16 0
16 14 17 0
-16 -17 0
-14 -17 0
18 12 19 0
-18 -19 0
-12 -19 0
-18 -12 20 0
18 -20 0
12 -20 0
19 20 21 0
-19 -21 0
-20 -21 0
17 -21 22 0
-17 -22 0
21 -22 0
22 20 23 0
-22 -23 0
-20 -23 0
24 12 25 0
-24 -25 0
-12 -25 0
-24 -12 26 0
24 -26 0
12 -26 0
25 26 27 0
-25 -27 0
-26 -27 0
23 -27 28 0
-23 -28 0
27 -28 0
28 26 29 0
-28 -29 0
-26 -29 0
30 12 31 0
-30 -31 0
-12 -31 0
-30 -12 32 0
30 -32 0
12 -32 0
31 32 33 0
-31 -33 0
-32 -33 0
-29 33 34 0
29 -34 0
-33 -34 0
29 -33 35 0
-29 -35 0
33 -35 0
34 35 36 0
-34 -36 0
-35 -36 0
-37 -38 39 0
37 -39 0
38 -39 0
-36 39 40 0
36 -40 0
-39 -40 0
36 -39 41 0
-36 -41 0
39 -41 0
40 41 42 0
-40 -42 0
-41 -42 0
-17 21 43 0
17 -43 0
-21 -43 0
43 22 44 0
-43 -44 0
-22 -44 0
-45 -46 47 0
45 -47 0
46 -47 0
44 -47 48 0
-44 -48 0
47 -48 0
-10 15 49 0
10 -49 0
-15 -49 0
49 16 50 0
-49 -50 0
-16 -50 0
-51 -52 53 0
51 -53 0
52 -53 0
-50 53 54 0
50 -54 0
-53 -54 0
48 54 55 0
-48 -55 0
-54 -55 0
1 2 56 0
-1 -56 0
-2 -56 0
56 3 57 0
-56 -57 0
-3 -57 0
-58 -59 60 0
58 -60 0
59 -60 0
57 -60 61 0
-57 -61 0
60 -61 0
-57 60 62 0
57 -62 0
-60 -62 0
61 62 63 0
-61 -63 0
-62 -63 0
-55 -63 64 0
55 -64 0
63 -64 0
-23 27 65 0
23 -65 0
-27 -65 0
65 28 66 0
-65 -66 0
-28 -66 0
-67 -68 69 0
67 -69 0
68 -69 0
-66 69 70 0
66 -70 0
-69 -70 0
-64 70 71 0
64 -71 0
-70 -71 0
50 -53 72 0
-50 -72 0
53 -72 0
-71 72 73 0
71 -73 0
-72 -73 0
3 8 74 0
-3 -74 0
-8 -74 0
74 9 75 0
-74 -75 0
-9 -75 0
-76 -77 78 0
76 -78 0
77 -78 0
-75 78 79 0
75 -79 0
-78 -79 0
75 -78 80 0
-75 -80 0
78 -80 0
79 80 81 0
-79 -81 0
-80 -81 0
-44 47 82 0
44 -82 0
-47 -82 0
-81 82 83 0
81 -83 0
-82 -83 0
66 -69 84 0
-66 -84 0
69 -84 0
-83 84 85 0
83 -85 0
-84 -85 0
-73 -85 86 0
73 -86 0
85 -86 0
-42 -86 87 0
42 -87 0
86 -87 0
-88 -12 89 0
88 -89 0
12 -89 0
88 12 90 0
-88 -90 0
-12 -90 0
89 90 91 0
-89 -91 0
-90 -91 0
-92 -93 94 0
92 -94 0
93 -94 0
91 -94 95 0
-91 -95 0
94 -95 0
-91 94 96 0
91 -96 0
-94 -96 0
95 96 97 0
-95 -97 0
-96 -97 0
35 32 98 0
-35 -98 0
-32 -98 0
99 12 100 0
-99 -100 0
-12 -100 0
-99 -12 101 0
99 -101 0
12 -101 0
100 101 102 0
-100 -102 0
-101 -102 0
98 -102 103 0
-98 -103 0
102 -103 0
103 101 104 0
-103 -104 0
-101 -104 0
97 104 105 0
-97 -105 0
-104 -105 0
-97 -104 106 0
97 -106 0
104 -106 0
105 106 107 0
-105 -107 0
-106 -107 0
-87 107 108 0
87 -108 0
-107 -108 0
-98 102 109 0
98 -109 0
-102 -109 0
109 103 110 0
-109 -110 0
-103 -110 0
-111 -112 113 0
111 -113 0
112 -113 0
-110 113 114 0
110 -114 0
-113 -114 0
110 -113 115 0
-110 -115 0
113 -115 0
114 115 116 0
-114 -116 0
-115 -116 0
-108 -116 117 0
108 -117 0
116 -117 0
117 0
